
  32    4
  10   10   10   10

   0   0   0   0   0  11 2 4 5 6 7 8 9 10 12 14 17 
   5   1   1   0   1   4 29 20 16 3 
   9   6   0   1   3   6 31 30 28 23 19 11 
   5   0   1   5   5   7 29 28 23 19 18 15 13 
   9   4   3   2   0   7 29 28 23 19 18 16 15 
  10   6   2   0   4   4 31 20 19 13 
   9   2   3   3   0   5 30 29 22 19 15 
   9   3   4   0   4   5 30 29 27 19 18 
  10   4   5   3   0   5 29 28 23 19 18 
   1   3   4   5   0   4 31 30 26 15 
   2   5   4   2   0   3 22 18 15 
   8   6   0   3   7   4 27 26 21 20 
   1   4   6   0   3   4 27 26 22 21 
   2   0   5   3   5   2 26 15 
   3   2   2   3   0   3 27 24 21 
  10   5   0   5   3   3 26 25 22 
  10   4   5   0   6   1 18 
   9   7   0   5   3   3 26 25 24 
   3   6   6   0   5   2 26 24 
   6   0   6   3   2   2 28 24 
   7   4   0   8   2   1 25 
   6   2   9   2   0   1 24 
   9   4   0   6   5   1 25 
   9   7   4   5   0   1 32
   2   0   2   6   2   1 32
  10   0   4   3   4   1 32
   8   1   0   5   2   1 32
   9   3   4   4   0   1 32
  10   4   0   7   5   1 32
  10   3   0   2   6   1 32
   6   4   0   5   7   1 32
   0   0   0   0   0   0 
